100 100
74 71 1
75 26 1
48 48 1
17 27 1
36 84 1
95 75 1
16 89 1
53 48 1
98 8 1
70 57 1
27 18 1
56 47 1
80 31 1
55 94 1
70 91 1
47 11 1
40 76 1
40 41 1
69 96 1
81 63 1
66 97 1
46 87 1
77 56 1
48 59 1
80 85 1
30 55 1
85 27 1
70 88 1
38 60 1
79 100 1
15 96 1
2 71 1
28 80 1
16 11 1
21 88 1
33 65 1
73 31 1
97 10 1
94 56 1
86 58 1
28 38 1
11 53 1
55 90 1
16 72 1
83 55 1
79 28 1
59 12 1
12 64 1
59 72 1
58 58 1
96 78 1
96 21 1
13 10 1
36 98 1
88 77 1
23 67 1
32 24 1
35 38 1
90 30 1
83 56 1
39 5 1
12 99 1
91 94 1
99 78 1
90 74 1
54 37 1
14 57 1
24 55 1
74 87 1
85 42 1
14 42 1
49 42 1
12 32 1
59 34 1
80 3 1
95 28 1
61 32 1
66 70 1
33 31 1
18 36 1
9 43 1
28 39 1
31 46 1
7 21 1
78 52 1
100 62 1
61 6 1
84 72 1
25 84 1
71 96 1
46 97 1
5 11 1
37 92 1
64 29 1
42 44 1
59 94 1
38 66 1
34 83 1
37 1 1
67 9 1
100 100 
100 100 
100 100 
100 100 
100 100 
100 100 
100 100 
100 100 
100 100 
100 100 
100 100 
100 100 
100 100 
100 100 
100 100 
100 100 
100 100 
100 100 
100 100 
100 100 
100 100 
100 100 
100 100 
100 100 
100 100 
100 100 
100 100 
100 100 
100 100 
100 100 
100 100 
100 100 
100 100 
100 100 
100 100 
100 100 
100 100 
100 100 
100 100 
100 100 
100 100 
100 100 
100 100 
100 100 
100 100 
100 100 
100 100 
100 100 
100 100 
100 100 
100 100 
100 100 
100 100 
100 100 
100 100 
100 100 
100 100 
100 100 
100 100 
100 100 
100 100 
100 100 
100 100 
100 100 
100 100 
100 100 
100 100 
100 100 
100 100 
100 100 
100 100 
100 100 
100 100 
100 100 
100 100 
100 100 
100 100 
100 100 
100 100 
100 100 
100 100 
100 100 
100 100 
100 100 
100 100 
100 100 
100 100 
100 100 
100 100 
100 100 
100 100 
100 100 
100 100 
100 100 
100 100 
100 100 
100 100 
100 100 
100 100 
100 100 
